
Gurobi 9.1.1 (win64) logging started Sun Mar 13 20:56:06 2022

Changed value of parameter LogFile to ./Log/Pattern_Appro_solver_1500_order_100_batch.log
   Prev:   Default: 
Gurobi Optimizer version 9.1.1 build v9.1.1rc0 (win64)
Thread count: 6 physical cores, 12 logical processors, using up to 12 threads
Optimize a model with 5160 rows, 30800 columns and 109100 nonzeros
Model fingerprint: 0x00b21d16
Variable types: 0 continuous, 30800 integer (24100 binary)
Coefficient statistics:
  Matrix range     [1e+00, 2e+01]
  Objective range  [1e+00, 4e+01]
  Bounds range     [1e+00, 8e+01]
  RHS range        [1e+00, 8e+01]
Found heuristic solution: objective 9003.0000000
Presolve removed 330 rows and 1606 columns
Presolve time: 0.12s
Presolved: 4830 rows, 29194 columns, 102070 nonzeros
Variable types: 0 continuous, 29194 integer (22978 binary)

Root relaxation: objective 2.602370e+03, 10384 iterations, 0.22 seconds

    Nodes    |    Current Node    |     Objective Bounds      |     Work
 Expl Unexpl |  Obj  Depth IntInf | Incumbent    BestBd   Gap | It/Node Time

     0     0 2602.37013    0  299 9003.00000 2602.37013  71.1%     -    0s
H    0     0                    5202.0000000 2602.37013  50.0%     -    0s
H    0     0                    5198.0000000 2602.37013  49.9%     -    0s
H    0     0                    5176.0000000 2602.37013  49.7%     -    1s
H    0     0                    5101.0000000 2602.37013  49.0%     -    1s
H    0     0                    4938.0000000 2602.37013  47.3%     -    1s
     0     0 2618.12218    0  464 4938.00000 2618.12218  47.0%     -    1s
H    0     0                    4465.0000000 2618.12218  41.4%     -    2s
     0     0 2630.21752    0  492 4465.00000 2630.21752  41.1%     -    2s
     0     0 2631.11548    0  489 4465.00000 2631.11548  41.1%     -    2s
     0     0 2631.11548    0  498 4465.00000 2631.11548  41.1%     -    2s
     0     0 2667.29147    0  589 4465.00000 2667.29147  40.3%     -    2s
     0     0 2671.42491    0  597 4465.00000 2671.42491  40.2%     -    3s
     0     0 2671.74343    0  612 4465.00000 2671.74343  40.2%     -    3s
     0     0 2676.34164    0  610 4465.00000 2676.34164  40.1%     -    3s
     0     0 2676.34164    0  643 4465.00000 2676.34164  40.1%     -    3s
     0     0 2687.19761    0  737 4465.00000 2687.19761  39.8%     -    4s
     0     0 2692.10894    0  741 4465.00000 2692.10894  39.7%     -    4s
     0     0 2692.31171    0  758 4465.00000 2692.31171  39.7%     -    4s
     0     0 2693.99145    0  731 4465.00000 2693.99145  39.7%     -    4s
     0     0 2694.73551    0  723 4465.00000 2694.73551  39.6%     -    4s
     0     0 2694.73603    0  737 4465.00000 2694.73603  39.6%     -    4s
H    0     0                    4249.0000000 2694.73603  36.6%     -    6s
H    0     0                    4183.0000000 2694.73603  35.6%     -    6s
     0     0 2708.48664    0  832 4183.00000 2708.48664  35.3%     -    6s
H    0     0                    4154.0000000 2708.48664  34.8%     -    7s
     0     0 2709.45180    0  883 4154.00000 2709.45180  34.8%     -    7s
     0     0 2709.93613    0  905 4154.00000 2709.93613  34.8%     -    7s
     0     0 2709.93977    0  908 4154.00000 2709.93977  34.8%     -    7s
     0     0 2719.51501    0  960 4154.00000 2719.51501  34.5%     -    9s
H    0     0                    4119.0000000 2719.51501  34.0%     -    9s
H    0     0                    4061.0000000 2719.51501  33.0%     -   10s
     0     0 2721.91313    0  942 4061.00000 2721.91313  33.0%     -   10s
     0     0 2722.86847    0 1014 4061.00000 2722.86847  33.0%     -   10s
     0     0 2723.06875    0 1071 4061.00000 2723.06875  32.9%     -   11s
     0     0 2723.09571    0 1049 4061.00000 2723.09571  32.9%     -   11s
     0     0 2734.73306    0 1140 4061.00000 2734.73306  32.7%     -   13s
     0     0 2736.46414    0 1134 4061.00000 2736.46414  32.6%     -   14s
     0     0 2737.73133    0 1159 4061.00000 2737.73133  32.6%     -   15s
     0     0 2738.08515    0 1153 4061.00000 2738.08515  32.6%     -   15s
     0     0 2738.19611    0 1191 4061.00000 2738.19611  32.6%     -   16s
     0     0 2738.39131    0 1208 4061.00000 2738.39131  32.6%     -   16s
     0     0 2738.42130    0 1195 4061.00000 2738.42130  32.6%     -   16s
H    0     0                    4054.0000000 2738.42130  32.5%     -   19s
     0     0 2743.70693    0 1269 4054.00000 2743.70693  32.3%     -   20s
H    0     0                    4046.0000000 2743.70693  32.2%     -   20s
H    0     0                    4029.0000000 2743.70693  31.9%     -   21s
     0     0 2744.27280    0 1178 4029.00000 2744.27280  31.9%     -   21s
     0     0 2745.15851    0 1207 4029.00000 2745.15851  31.9%     -   22s
     0     0 2746.12614    0 1237 4029.00000 2746.12614  31.8%     -   22s
     0     0 2746.15657    0 1256 4029.00000 2746.15657  31.8%     -   22s
     0     0 2750.02502    0 1242 4029.00000 2750.02502  31.7%     -   24s
     0     0 2751.63401    0 1296 4029.00000 2751.63401  31.7%     -   25s
     0     0 2752.79048    0 1360 4029.00000 2752.79048  31.7%     -   26s
     0     0 2753.05842    0 1397 4029.00000 2753.05842  31.7%     -   27s
     0     0 2753.17390    0 1415 4029.00000 2753.17390  31.7%     -   28s
H    0     0                    3992.0000000 2753.17390  31.0%     -   30s
     0     0 2754.68642    0 1514 3992.00000 2754.68642  31.0%     -   30s
H    0     0                    3869.0000000 2754.68642  28.8%     -   40s
     0     0 2756.01024    0 1452 3869.00000 2756.01024  28.8%     -   44s
     0     0 2756.25656    0 1468 3869.00000 2756.25656  28.8%     -   45s
     0     0 2756.42390    0 1503 3869.00000 2756.42390  28.8%     -   46s
     0     0 2756.97404    0 1450 3869.00000 2756.97404  28.7%     -   47s
     0     0 2757.09387    0 1501 3869.00000 2757.09387  28.7%     -   48s
     0     0 2759.12239    0 1612 3869.00000 2759.12239  28.7%     -   52s
     0     0 2760.09231    0 1669 3869.00000 2760.09231  28.7%     -   54s
     0     0 2760.47050    0 1664 3869.00000 2760.47050  28.7%     -   56s
     0     0 2760.70958    0 1754 3869.00000 2760.70958  28.6%     -   57s
     0     0 2760.86410    0 1750 3869.00000 2760.86410  28.6%     -   58s
     0     0          -    0      3869.00000 2760.86410  28.6%     -   60s

Cutting planes:
  Gomory: 79
  Cover: 1991
  Implied bound: 180
  Clique: 246
  MIR: 104
  StrongCG: 17
  Flow cover: 302
  Zero half: 105
  Relax-and-lift: 3

Explored 1 nodes (78222 simplex iterations) in 60.04 seconds
Thread count was 12 (of 12 available processors)

Solution count 10: 3869 3992 4029 ... 4249

Time limit reached
Best objective 3.869000000000e+03, best bound 2.761000000000e+03, gap 28.6379%
